p cnf 597 1727
a 9 10 11 12 13 14 15 16 17 18 19 20 21 22 23 24 25 26 27 28 29 30 31 32 33 34 35 36 37 38 39 40 41 42 43 44 45 46 47 48 49 50 51 52 53 54 55 56 57 58 59 60 61 62 63 64 65 66 67 68 69 70 71 72 73 74 0
e 1 2 3 4 5 6 7 8 75 76 77 78 79 80 81 82 83 84 85 86 87 88 89 90 91 92 93 94 95 96 97 98 99 100 101 102 103 104 105 106 107 108 109 110 111 112 113 114 115 116 117 118 119 120 121 122 123 124 125 126 127 128 129 130 131 132 133 134 135 136 137 138 139 140 141 142 143 144 145 146 147 148 149 150 151 152 153 154 155 156 157 158 159 160 161 162 163 164 165 166 167 168 169 170 171 172 173 174 175 176 177 178 179 180 181 182 183 184 185 186 187 188 189 190 191 192 193 194 195 196 197 198 199 200 201 202 203 204 205 206 207 208 209 210 211 212 213 214 215 216 217 218 219 220 221 222 223 224 225 226 227 228 229 230 231 232 233 234 235 236 237 238 239 240 241 242 243 244 245 246 247 248 249 250 251 252 253 254 255 256 257 258 259 260 261 262 263 264 265 266 267 268 269 270 271 272 273 274 275 276 277 278 279 280 281 282 283 284 285 286 287 288 289 290 291 292 293 294 295 296 297 298 299 300 301 302 303 304 305 306 307 308 309 310 311 312 313 314 315 316 317 318 319 320 321 322 323 324 325 326 327 328 329 330 331 332 333 334 335 336 337 338 339 340 341 342 343 344 345 346 347 348 349 350 351 352 353 354 355 356 357 358 359 360 361 362 363 364 365 366 367 368 369 370 371 372 373 374 375 376 377 378 379 380 381 382 383 384 385 386 387 388 389 390 391 392 393 394 395 396 397 398 399 400 401 402 403 404 405 406 407 408 409 410 411 412 413 414 415 416 417 418 419 420 421 422 423 424 425 426 427 428 429 430 431 432 433 434 435 436 437 438 439 440 441 442 443 444 445 446 447 448 449 450 451 452 453 454 455 456 457 458 459 460 461 462 463 464 465 466 467 468 469 470 471 472 473 474 475 476 477 478 479 480 481 482 483 484 485 486 487 488 489 490 491 492 493 494 495 496 497 498 499 500 501 502 503 504 505 506 507 508 509 510 511 512 513 514 515 516 517 518 519 520 521 522 523 524 525 526 527 528 529 530 531 532 533 534 535 536 537 538 539 540 541 542 543 544 545 546 547 548 549 550 551 552 553 554 555 556 557 558 559 560 561 562 563 564 565 566 567 568 569 570 571 572 573 574 575 576 577 578 579 580 581 582 583 584 585 586 587 588 589 590 591 592 593 594 595 596 597 0
-597 0
597 -335 0
597 -596 0
-595 -590 -585 -580 -575 -568 -560 -552 -533 -514 -337 596 0
595 -594 0
595 -394 0
595 -395 0
595 -396 0
595 -397 0
-593 -592 -591 594 0
593 -385 0
593 -486 0
593 -386 0
593 -487 0
593 -488 0
593 -489 0
593 -390 0
593 -391 0
593 -74 0
593 -71 0
593 -65 0
593 -61 0
593 -47 0
593 -46 0
593 -41 0
592 -376 0
592 -377 0
592 -481 0
592 -379 0
592 -380 0
592 -482 0
592 -483 0
592 -484 0
592 -73 0
592 -70 0
592 -64 0
592 -58 0
592 -34 0
592 -33 0
592 -28 0
591 -476 0
591 -367 0
591 -368 0
591 -370 0
591 -477 0
591 -371 0
591 -478 0
591 -72 0
591 -69 0
591 -63 0
591 -55 0
591 -479 0
591 -21 0
591 -20 0
591 -15 0
590 -589 0
590 -394 0
590 -395 0
590 -396 0
590 -397 0
-588 -587 -586 589 0
588 -409 0
588 -425 0
588 -426 0
588 -427 0
588 -410 0
588 -411 0
588 -412 0
588 -428 0
588 -47 0
588 -46 0
588 -45 0
588 -44 0
588 -43 0
588 -42 0
588 -41 0
587 -420 0
587 -404 0
587 -405 0
587 -421 0
587 -406 0
587 -407 0
587 -422 0
587 -423 0
587 -34 0
587 -33 0
587 -32 0
587 -31 0
587 -30 0
587 -29 0
587 -28 0
586 -399 0
586 -415 0
586 -400 0
586 -401 0
586 -416 0
586 -417 0
586 -402 0
586 -418 0
586 -21 0
586 -20 0
586 -19 0
586 -18 0
586 -17 0
586 -16 0
586 -15 0
585 -584 0
585 -394 0
585 -395 0
585 -396 0
585 -397 0
-583 -582 -581 584 0
583 -358 0
583 -448 0
583 -449 0
583 -359 0
583 -360 0
583 -361 0
583 -450 0
583 -451 0
583 -65 0
583 -61 0
583 -47 0
583 -46 0
583 -45 0
583 -44 0
583 -41 0
582 -443 0
582 -349 0
582 -350 0
582 -444 0
582 -351 0
582 -352 0
582 -445 0
582 -446 0
582 -64 0
582 -58 0
582 -34 0
582 -33 0
582 -32 0
582 -31 0
582 -28 0
581 -338 0
581 -339 0
581 -438 0
581 -439 0
581 -340 0
581 -343 0
581 -440 0
581 -441 0
581 -63 0
581 -55 0
581 -21 0
581 -20 0
581 -19 0
581 -18 0
581 -15 0
580 -579 0
580 -394 0
580 -395 0
580 -396 0
580 -397 0
-578 -577 -576 579 0
578 -356 0
578 -357 0
578 -384 0
578 -387 0
578 -388 0
578 -389 0
578 -362 0
578 -363 0
578 -65 0
578 -61 0
578 -47 0
578 -46 0
578 -45 0
578 -44 0
578 -41 0
577 -347 0
577 -375 0
577 -348 0
577 -378 0
577 -381 0
577 -353 0
577 -354 0
577 -382 0
577 -64 0
577 -58 0
577 -34 0
577 -33 0
577 -32 0
577 -31 0
577 -28 0
576 -366 0
576 -341 0
576 -342 0
576 -369 0
576 -344 0
576 -345 0
576 -372 0
576 -63 0
576 -55 0
576 -373 0
576 -21 0
576 -20 0
576 -19 0
576 -18 0
576 -15 0
575 -571 0
575 -574 0
-526 -525 -524 -573 -572 574 0
573 -522 0
573 -453 0
573 -394 0
573 -395 0
573 -396 0
573 -397 0
572 -548 0
572 -393 0
572 -394 0
572 -395 0
572 -396 0
572 -397 0
-494 -570 -569 -493 -492 571 0
570 -458 0
570 -504 0
570 -394 0
570 -395 0
570 -396 0
570 -397 0
569 -414 0
569 -562 0
569 -394 0
569 -395 0
569 -396 0
569 -397 0
568 -564 0
568 -567 0
-541 -566 -540 -539 -565 567 0
566 -557 0
566 -470 0
566 -394 0
566 -395 0
566 -396 0
566 -397 0
565 -537 0
565 -393 0
565 -394 0
565 -395 0
565 -396 0
565 -397 0
-503 -502 -501 -563 -561 564 0
563 -562 0
563 -435 0
563 -394 0
563 -395 0
563 -396 0
563 -397 0
-512 -511 -510 562 0
561 -495 0
561 -430 0
561 -394 0
561 -395 0
561 -396 0
561 -397 0
560 -555 0
560 -559 0
-536 -535 -534 -558 -556 559 0
558 -557 0
558 -499 0
558 -394 0
558 -395 0
558 -396 0
558 -397 0
-546 -545 -544 557 0
556 -542 0
556 -491 0
556 -394 0
556 -395 0
556 -396 0
556 -397 0
-436 -554 -553 -431 -398 555 0
554 -466 0
554 -430 0
554 -394 0
554 -395 0
554 -396 0
554 -397 0
553 -516 0
553 -365 0
553 -394 0
553 -395 0
553 -396 0
553 -397 0
552 -547 0
552 -551 0
-521 -520 -519 -550 -549 551 0
550 -365 0
550 -527 0
550 -394 0
550 -395 0
550 -396 0
550 -397 0
549 -548 0
549 -435 0
549 -394 0
549 -395 0
549 -396 0
549 -397 0
-531 -530 -529 548 0
-546 -545 -544 -543 -538 547 0
546 -458 0
546 -394 0
546 -395 0
546 -396 0
546 -397 0
545 -463 0
545 -453 0
545 -394 0
545 -395 0
545 -396 0
545 -397 0
544 -414 0
544 -508 0
544 -394 0
544 -395 0
544 -396 0
544 -397 0
543 -542 0
543 -463 0
543 -394 0
543 -395 0
543 -396 0
543 -397 0
-541 -540 -539 542 0
541 -453 0
541 -394 0
541 -395 0
541 -396 0
541 -397 0
540 -508 0
540 -393 0
540 -394 0
540 -395 0
540 -396 0
540 -397 0
539 -458 0
539 -470 0
539 -394 0
539 -395 0
539 -396 0
539 -397 0
538 -537 0
538 -414 0
538 -394 0
538 -395 0
538 -396 0
538 -397 0
-536 -535 -534 537 0
536 -508 0
536 -394 0
536 -395 0
536 -396 0
536 -397 0
535 -458 0
535 -499 0
535 -394 0
535 -395 0
535 -396 0
535 -397 0
534 -491 0
534 -453 0
534 -394 0
534 -395 0
534 -396 0
534 -397 0
533 -518 0
533 -532 0
-531 -530 -529 -528 -523 532 0
531 -499 0
531 -394 0
531 -395 0
531 -396 0
531 -397 0
530 -508 0
530 -430 0
530 -394 0
530 -395 0
530 -396 0
530 -397 0
529 -491 0
529 -470 0
529 -394 0
529 -395 0
529 -396 0
529 -397 0
528 -491 0
528 -527 0
528 -394 0
528 -395 0
528 -396 0
528 -397 0
-526 -525 -524 527 0
526 -470 0
526 -394 0
526 -395 0
526 -396 0
526 -397 0
525 -453 0
525 -430 0
525 -394 0
525 -395 0
525 -396 0
525 -397 0
524 -393 0
524 -499 0
524 -394 0
524 -395 0
524 -396 0
524 -397 0
523 -508 0
523 -522 0
523 -394 0
523 -395 0
523 -396 0
523 -397 0
-521 -520 -519 522 0
521 -430 0
521 -394 0
521 -395 0
521 -396 0
521 -397 0
520 -435 0
520 -499 0
520 -394 0
520 -395 0
520 -396 0
520 -397 0
519 -365 0
519 -470 0
519 -394 0
519 -395 0
519 -396 0
519 -397 0
-465 -464 -459 -517 -515 518 0
517 -516 0
517 -463 0
517 -394 0
517 -395 0
517 -396 0
517 -397 0
-474 -473 -472 516 0
515 -437 0
515 -458 0
515 -394 0
515 -395 0
515 -396 0
515 -397 0
514 -475 0
514 -513 0
-512 -511 -510 -509 -500 513 0
512 -491 0
512 -394 0
512 -395 0
512 -396 0
512 -397 0
511 -463 0
511 -499 0
511 -394 0
511 -395 0
511 -396 0
511 -397 0
510 -508 0
510 -365 0
510 -394 0
510 -395 0
510 -396 0
510 -397 0
509 -504 0
509 -508 0
509 -394 0
509 -395 0
509 -396 0
509 -397 0
-507 -506 -505 508 0
507 -448 0
507 -449 0
507 -486 0
507 -487 0
507 -488 0
507 -489 0
507 -450 0
507 -451 0
507 -74 0
507 -65 0
507 -61 0
507 -60 0
507 -47 0
507 -46 0
507 -45 0
506 -443 0
506 -481 0
506 -444 0
506 -482 0
506 -483 0
506 -484 0
506 -445 0
506 -446 0
506 -73 0
506 -64 0
506 -58 0
506 -57 0
506 -34 0
506 -33 0
506 -32 0
505 -476 0
505 -438 0
505 -439 0
505 -477 0
505 -440 0
505 -441 0
505 -478 0
505 -72 0
505 -63 0
505 -55 0
505 -54 0
505 -479 0
505 -21 0
505 -20 0
505 -19 0
-503 -502 -501 504 0
503 -365 0
503 -394 0
503 -395 0
503 -396 0
503 -397 0
502 -491 0
502 -435 0
502 -394 0
502 -395 0
502 -396 0
502 -397 0
501 -463 0
501 -430 0
501 -394 0
501 -395 0
501 -396 0
501 -397 0
500 -495 0
500 -499 0
500 -394 0
500 -395 0
500 -396 0
500 -397 0
-498 -497 -496 499 0
498 -425 0
498 -426 0
498 -486 0
498 -427 0
498 -487 0
498 -488 0
498 -489 0
498 -428 0
498 -74 0
498 -65 0
498 -60 0
498 -47 0
498 -46 0
498 -45 0
498 -43 0
497 -481 0
497 -420 0
497 -482 0
497 -483 0
497 -484 0
497 -421 0
497 -422 0
497 -423 0
497 -73 0
497 -64 0
497 -57 0
497 -34 0
497 -33 0
497 -32 0
497 -30 0
496 -476 0
496 -415 0
496 -477 0
496 -416 0
496 -417 0
496 -418 0
496 -478 0
496 -72 0
496 -63 0
496 -54 0
496 -479 0
496 -21 0
496 -20 0
496 -19 0
496 -17 0
-494 -493 -492 495 0
494 -463 0
494 -394 0
494 -395 0
494 -396 0
494 -397 0
493 -458 0
493 -365 0
493 -394 0
493 -395 0
493 -396 0
493 -397 0
492 -414 0
492 -491 0
492 -394 0
492 -395 0
492 -396 0
492 -397 0
-490 -485 -480 491 0
490 -356 0
490 -357 0
490 -486 0
490 -487 0
490 -488 0
490 -489 0
490 -362 0
490 -363 0
490 -74 0
490 -68 0
490 -65 0
490 -61 0
490 -60 0
490 -46 0
490 -45 0
-4 -52 489 0
-8 -14 488 0
-11 8 487 0
4 -48 486 0
485 -347 0
485 -348 0
485 -481 0
485 -482 0
485 -483 0
485 -484 0
485 -353 0
485 -354 0
485 -73 0
485 -67 0
485 -64 0
485 -58 0
485 -57 0
485 -33 0
485 -32 0
-4 -39 484 0
-8 -12 483 0
-10 8 482 0
-35 4 481 0
480 -476 0
480 -341 0
480 -342 0
480 -477 0
480 -478 0
480 -344 0
480 -345 0
480 -72 0
480 -66 0
480 -63 0
480 -55 0
480 -54 0
480 -479 0
480 -20 0
480 -19 0
-8 -13 479 0
-9 8 478 0
-4 -26 477 0
-22 4 476 0
-474 -473 -472 -471 -454 475 0
474 -393 0
474 -394 0
474 -395 0
474 -396 0
474 -397 0
473 -414 0
473 -470 0
473 -394 0
473 -395 0
473 -396 0
473 -397 0
472 -435 0
472 -453 0
472 -394 0
472 -395 0
472 -396 0
472 -397 0
471 -466 0
471 -470 0
471 -394 0
471 -395 0
471 -396 0
471 -397 0
-469 -468 -467 470 0
469 -384 0
469 -425 0
469 -426 0
469 -427 0
469 -387 0
469 -388 0
469 -389 0
469 -428 0
469 -65 0
469 -60 0
469 -47 0
469 -46 0
469 -45 0
469 -44 0
469 -43 0
468 -375 0
468 -378 0
468 -420 0
468 -421 0
468 -422 0
468 -423 0
468 -381 0
468 -382 0
468 -64 0
468 -57 0
468 -34 0
468 -33 0
468 -32 0
468 -31 0
468 -30 0
467 -366 0
467 -415 0
467 -369 0
467 -416 0
467 -417 0
467 -418 0
467 -372 0
467 -63 0
467 -54 0
467 -373 0
467 -21 0
467 -20 0
467 -19 0
467 -18 0
467 -17 0
-465 -464 -459 466 0
465 -414 0
465 -394 0
465 -395 0
465 -396 0
465 -397 0
464 -463 0
464 -393 0
464 -394 0
464 -395 0
464 -396 0
464 -397 0
-462 -461 -460 463 0
462 -356 0
462 -357 0
462 -409 0
462 -410 0
462 -411 0
462 -412 0
462 -362 0
462 -363 0
462 -61 0
462 -60 0
462 -47 0
462 -46 0
462 -45 0
462 -44 0
462 -42 0
461 -347 0
461 -348 0
461 -404 0
461 -405 0
461 -406 0
461 -407 0
461 -353 0
461 -354 0
461 -58 0
461 -57 0
461 -34 0
461 -33 0
461 -32 0
461 -31 0
461 -29 0
460 -399 0
460 -400 0
460 -401 0
460 -341 0
460 -342 0
460 -402 0
460 -344 0
460 -345 0
460 -55 0
460 -54 0
460 -21 0
460 -20 0
460 -19 0
460 -18 0
460 -16 0
459 -458 0
459 -435 0
459 -394 0
459 -395 0
459 -396 0
459 -397 0
-457 -456 -455 458 0
457 -409 0
457 -448 0
457 -449 0
457 -410 0
457 -411 0
457 -412 0
457 -450 0
457 -451 0
457 -62 0
457 -61 0
457 -60 0
457 -47 0
457 -45 0
457 -44 0
457 -42 0
456 -443 0
456 -444 0
456 -404 0
456 -405 0
456 -445 0
456 -446 0
456 -406 0
456 -407 0
456 -59 0
456 -58 0
456 -57 0
456 -34 0
456 -32 0
456 -31 0
456 -29 0
455 -399 0
455 -400 0
455 -401 0
455 -438 0
455 -439 0
455 -440 0
455 -402 0
455 -441 0
455 -56 0
455 -55 0
455 -54 0
455 -21 0
455 -19 0
455 -18 0
455 -16 0
454 -437 0
454 -453 0
454 -394 0
454 -395 0
454 -396 0
454 -397 0
-452 -447 -442 453 0
452 -384 0
452 -448 0
452 -449 0
452 -387 0
452 -388 0
452 -389 0
452 -450 0
452 -451 0
452 -68 0
452 -65 0
452 -61 0
452 -60 0
452 -46 0
452 -45 0
452 -44 0
-6 -51 451 0
6 -49 450 0
-2 -53 449 0
2 -50 448 0
447 -375 0
447 -443 0
447 -378 0
447 -444 0
447 -445 0
447 -446 0
447 -381 0
447 -382 0
447 -67 0
447 -64 0
447 -58 0
447 -57 0
447 -33 0
447 -32 0
447 -31 0
-6 -38 446 0
-36 6 445 0
-2 -40 444 0
-37 2 443 0
442 -366 0
442 -438 0
442 -439 0
442 -369 0
442 -440 0
442 -441 0
442 -372 0
442 -66 0
442 -63 0
442 -55 0
442 -54 0
442 -373 0
442 -20 0
442 -19 0
442 -18 0
-6 -25 441 0
-23 6 440 0
-24 2 439 0
-2 -27 438 0
-436 -431 -398 437 0
436 -435 0
436 -394 0
436 -395 0
436 -396 0
436 -397 0
-434 -433 -432 435 0
434 -358 0
434 -385 0
434 -386 0
434 -359 0
434 -360 0
434 -390 0
434 -391 0
434 -361 0
434 -71 0
434 -65 0
434 -61 0
434 -60 0
434 -47 0
434 -46 0
434 -44 0
433 -376 0
433 -349 0
433 -377 0
433 -379 0
433 -350 0
433 -380 0
433 -351 0
433 -352 0
433 -70 0
433 -64 0
433 -58 0
433 -57 0
433 -34 0
433 -33 0
433 -31 0
432 -338 0
432 -367 0
432 -368 0
432 -339 0
432 -340 0
432 -370 0
432 -371 0
432 -343 0
432 -69 0
432 -63 0
432 -55 0
432 -54 0
432 -21 0
432 -20 0
432 -18 0
431 -414 0
431 -430 0
431 -394 0
431 -395 0
431 -396 0
431 -397 0
-429 -424 -419 430 0
429 -425 0
429 -426 0
429 -358 0
429 -427 0
429 -359 0
429 -360 0
429 -361 0
429 -428 0
429 -68 0
429 -65 0
429 -60 0
429 -46 0
429 -45 0
429 -44 0
429 -43 0
-5 -51 428 0
5 -49 427 0
-1 -53 426 0
1 -50 425 0
424 -349 0
424 -350 0
424 -420 0
424 -351 0
424 -421 0
424 -352 0
424 -422 0
424 -423 0
424 -67 0
424 -64 0
424 -57 0
424 -33 0
424 -32 0
424 -31 0
424 -30 0
-37 1 423 0
-1 -40 422 0
-5 -38 421 0
-36 5 420 0
419 -338 0
419 -415 0
419 -339 0
419 -340 0
419 -343 0
419 -416 0
419 -417 0
419 -418 0
419 -66 0
419 -63 0
419 -54 0
419 -20 0
419 -19 0
419 -18 0
419 -17 0
-5 -25 418 0
-24 1 417 0
-1 -27 416 0
-23 5 415 0
-413 -408 -403 414 0
413 -409 0
413 -385 0
413 -386 0
413 -410 0
413 -411 0
413 -390 0
413 -391 0
413 -412 0
413 -71 0
413 -61 0
413 -60 0
413 -47 0
413 -46 0
413 -44 0
413 -42 0
-5 -14 412 0
-11 5 411 0
-1 -52 410 0
1 -48 409 0
408 -376 0
408 -377 0
408 -379 0
408 -380 0
408 -404 0
408 -405 0
408 -406 0
408 -407 0
408 -70 0
408 -58 0
408 -57 0
408 -34 0
408 -33 0
408 -31 0
408 -29 0
-1 -39 407 0
-35 1 406 0
-5 -12 405 0
-10 5 404 0
403 -399 0
403 -367 0
403 -368 0
403 -400 0
403 -401 0
403 -370 0
403 -371 0
403 -402 0
403 -69 0
403 -55 0
403 -54 0
403 -21 0
403 -20 0
403 -18 0
403 -16 0
-1 -26 402 0
-5 -13 401 0
-9 5 400 0
-22 1 399 0
398 -365 0
398 -393 0
398 -394 0
398 -395 0
398 -396 0
398 -397 0
-10 9 397 0
-11 10 396 0
-13 12 395 0
-12 14 394 0
-392 -383 -374 393 0
392 -384 0
392 -385 0
392 -386 0
392 -387 0
392 -388 0
392 -389 0
392 -390 0
392 -391 0
392 -71 0
392 -65 0
392 -62 0
392 -61 0
392 -60 0
392 -47 0
392 -44 0
-4 -53 391 0
-8 -51 390 0
-7 -14 389 0
-11 7 388 0
-3 -52 387 0
8 -49 386 0
4 -50 385 0
3 -48 384 0
383 -375 0
383 -376 0
383 -377 0
383 -378 0
383 -379 0
383 -380 0
383 -381 0
383 -382 0
383 -70 0
383 -64 0
383 -59 0
383 -58 0
383 -57 0
383 -34 0
383 -31 0
-10 7 382 0
-7 -12 381 0
-8 -38 380 0
-4 -40 379 0
-35 3 378 0
-37 4 377 0
-36 8 376 0
-3 -39 375 0
374 -366 0
374 -367 0
374 -368 0
374 -369 0
374 -370 0
374 -371 0
374 -372 0
374 -69 0
374 -63 0
374 -56 0
374 -55 0
374 -54 0
374 -373 0
374 -21 0
374 -18 0
-7 -13 373 0
-9 7 372 0
-4 -27 371 0
-24 4 370 0
-3 -26 369 0
-23 8 368 0
-8 -25 367 0
-22 3 366 0
-364 -355 -346 365 0
364 -356 0
364 -357 0
364 -358 0
364 -359 0
364 -360 0
364 -361 0
364 -362 0
364 -363 0
364 -65 0
364 -62 0
364 -61 0
364 -60 0
364 -47 0
364 -45 0
364 -44 0
-7 -51 363 0
7 -49 362 0
-6 -14 361 0
-11 6 360 0
-2 -52 359 0
2 -48 358 0
3 -50 357 0
-3 -53 356 0
355 -347 0
355 -348 0
355 -349 0
355 -350 0
355 -351 0
355 -352 0
355 -353 0
355 -354 0
355 -64 0
355 -59 0
355 -58 0
355 -57 0
355 -34 0
355 -32 0
355 -31 0
-7 -38 354 0
-36 7 353 0
-6 -12 352 0
-10 6 351 0
-35 2 350 0
-2 -39 349 0
-3 -40 348 0
-37 3 347 0
346 -338 0
346 -339 0
346 -340 0
346 -341 0
346 -342 0
346 -343 0
346 -344 0
346 -345 0
346 -63 0
346 -56 0
346 -55 0
346 -54 0
346 -21 0
346 -19 0
346 -18 0
-7 -25 345 0
-23 7 344 0
-9 6 343 0
-24 3 342 0
-3 -27 341 0
-2 -26 340 0
-6 -13 339 0
-22 2 338 0
337 -336 0
337 1 0
337 2 0
337 3 0
337 4 0
7 5 6 8 336 0
-1 -2 -3 -4 -334 -333 335 0
334 -8 0
334 -7 0
334 -6 0
334 -5 0
333 -251 0
333 -270 0
333 -289 0
333 -297 0
333 -305 0
333 -312 0
333 -317 0
333 -322 0
333 -327 0
333 -332 0
-134 -133 -132 -131 -331 332 0
331 -328 0
331 -329 0
331 -330 0
61 46 65 74 47 71 41 -128 -127 -226 -225 -224 -123 -223 -122 330 0
28 33 34 64 58 73 70 -221 -220 -219 -117 -116 -218 -114 -113 329 0
21 20 -216 15 55 69 63 -215 72 -108 -214 -107 -105 -104 -213 328 0
-134 -133 -132 -131 -326 327 0
326 -323 0
326 -324 0
326 -325 0
46 45 43 47 44 42 41 -165 -149 -148 -147 -164 -163 -162 -146 325 0
28 32 31 30 29 33 34 -160 -159 -144 -143 -158 -142 -141 -157 324 0
21 20 19 18 17 16 15 -155 -139 -154 -153 -138 -137 -152 -136 323 0
-134 -133 -132 -131 -321 322 0
321 -318 0
321 -319 0
321 -320 0
61 46 45 65 47 44 41 -188 -187 -98 -97 -96 -186 -185 -95 320 0
28 32 31 33 34 64 58 -183 -182 -89 -88 -181 -87 -86 -180 319 0
21 20 19 18 15 55 63 -178 -177 -80 -77 -176 -175 -76 -75 318 0
-134 -133 -132 -131 -316 317 0
316 -313 0
316 -314 0
316 -315 0
61 -100 -99 46 45 65 47 44 41 -126 -125 -124 -121 -94 -93 315 0
28 32 31 33 34 -119 64 -91 -90 58 -118 -115 -85 -112 -84 314 0
21 -110 20 19 18 15 55 63 -109 -82 -81 -106 -79 -78 -103 313 0
-311 -308 312 0
311 -309 0
311 -310 0
311 -261 0
311 -262 0
311 -263 0
-134 -133 -132 -131 -190 -259 310 0
-134 -133 -132 -131 -130 -285 309 0
308 -229 0
308 -230 0
308 -306 0
308 -307 0
308 -231 0
-134 -133 -132 -131 -241 -195 307 0
-134 -133 -132 -131 -299 -151 306 0
-304 -301 305 0
304 -302 0
304 -276 0
304 -277 0
304 -303 0
304 -278 0
-134 -133 -132 -131 -207 -294 303 0
-134 -133 -132 -131 -130 -274 302 0
301 -298 0
301 -300 0
301 -238 0
301 -239 0
301 -240 0
-134 -133 -132 -131 -172 -299 300 0
299 -247 0
299 -248 0
299 -249 0
-134 -133 -132 -131 -167 -232 298 0
-296 -292 297 0
296 -293 0
296 -295 0
296 -271 0
296 -272 0
296 -273 0
-134 -133 -132 -131 -236 -294 295 0
294 -281 0
294 -282 0
294 -283 0
-134 -133 -132 -131 -228 -279 293 0
292 -135 0
292 -168 0
292 -290 0
292 -291 0
292 -173 0
-134 -133 -132 -131 -167 -203 291 0
-134 -133 -132 -131 -102 -253 290 0
-288 -284 289 0
288 -286 0
288 -287 0
288 -256 0
288 -257 0
288 -258 0
-134 -133 -132 -131 -264 -102 287 0
-134 -133 -132 -131 -172 -285 286 0
285 -266 0
285 -267 0
285 -268 0
284 -275 0
284 -280 0
284 -281 0
284 -282 0
284 -283 0
-134 -133 -132 -131 -195 283 0
-134 -133 -132 -131 -190 -200 282 0
-134 -133 -132 -131 -245 -151 281 0
-134 -133 -132 -131 -200 -279 280 0
279 -276 0
279 -277 0
279 -278 0
-134 -133 -132 -131 -190 278 0
-134 -133 -132 -131 -130 -245 277 0
-134 -133 -132 -131 -207 -195 276 0
-134 -133 -132 -131 -151 -274 275 0
274 -271 0
274 -272 0
274 -273 0
-134 -133 -132 -131 -245 273 0
-134 -133 -132 -131 -236 -195 272 0
-134 -133 -132 -131 -190 -228 271 0
-269 -255 270 0
269 -260 0
269 -265 0
269 -266 0
269 -267 0
269 -268 0
-134 -133 -132 -131 -236 268 0
-134 -133 -132 -131 -167 -245 267 0
-134 -133 -132 -131 -207 -228 266 0
-134 -133 -132 -131 -264 -228 265 0
264 -261 0
264 -262 0
264 -263 0
-134 -133 -132 -131 -207 263 0
-134 -133 -132 -131 -167 -190 262 0
-134 -133 -132 -131 -236 -130 261 0
-134 -133 -132 -131 -259 -245 260 0
259 -256 0
259 -257 0
259 -258 0
-134 -133 -132 -131 -167 258 0
-134 -133 -132 -131 -236 -172 257 0
-134 -133 -132 -131 -207 -102 256 0
255 -252 0
255 -254 0
255 -196 0
255 -201 0
255 -202 0
-134 -133 -132 -131 -200 -253 254 0
253 -209 0
253 -210 0
253 -211 0
-134 -133 -132 -131 -195 -174 252 0
-250 -212 251 0
250 -237 0
250 -246 0
250 -247 0
250 -248 0
250 -249 0
-134 -133 -132 -131 -228 249 0
-134 -133 -132 -131 -236 -200 248 0
-134 -133 -132 -131 -102 -245 247 0
-134 -133 -132 -131 -245 -241 246 0
245 -242 0
245 -243 0
245 -244 0
61 46 45 65 60 74 47 -188 -187 -226 -225 -224 -223 -186 -185 244 0
32 33 34 64 58 57 73 -183 -182 -221 -220 -219 -218 -181 -180 243 0
21 20 19 -216 54 55 63 -215 72 -178 -177 -214 -176 -175 -213 242 0
241 -238 0
241 -239 0
241 -240 0
-134 -133 -132 -131 -102 240 0
-134 -133 -132 -131 -172 -228 239 0
-134 -133 -132 -131 -167 -200 238 0
-134 -133 -132 -131 -236 -232 237 0
236 -233 0
236 -234 0
236 -235 0
46 45 43 65 60 74 47 -165 -226 -225 -224 -164 -223 -163 -162 235 0
32 30 33 34 64 57 73 -160 -159 -158 -221 -220 -219 -157 -218 234 0
21 20 19 17 -216 54 63 -215 72 -155 -154 -153 -214 -152 -213 233 0
232 -229 0
232 -230 0
232 -231 0
-134 -133 -132 -131 -200 231 0
-134 -133 -132 -131 -102 -195 230 0
-134 -133 -132 -131 -228 -151 229 0
228 -217 0
228 -222 0
228 -227 0
61 68 -100 -99 46 45 65 60 74 -226 -225 -224 -223 -94 -93 227 0
226 52 0
226 4 0
225 14 0
225 8 0
224 11 0
224 -8 0
223 48 0
223 -4 0
32 33 67 64 -91 -90 58 57 73 -221 -220 -219 -218 -85 -84 222 0
221 39 0
221 4 0
220 12 0
220 8 0
219 10 0
219 -8 0
218 35 0
218 -4 0
20 19 -216 54 55 66 63 -82 -81 -215 72 -214 -79 -78 -213 217 0
216 8 0
216 13 0
215 9 0
215 -8 0
214 26 0
214 4 0
213 22 0
213 -4 0
212 -191 0
212 -208 0
212 -209 0
212 -210 0
212 -211 0
-134 -133 -132 -131 -130 211 0
-134 -133 -132 -131 -207 -151 210 0
-134 -133 -132 -131 -190 -172 209 0
-134 -133 -132 -131 -207 -203 208 0
207 -204 0
207 -205 0
207 -206 0
46 45 43 65 60 47 44 -165 -126 -125 -124 -164 -163 -162 -121 206 0
32 31 30 33 34 -119 64 57 -118 -160 -159 -158 -157 -115 -112 205 0
21 -110 20 19 18 17 54 63 -109 -155 -154 -153 -106 -152 -103 204 0
203 -196 0
203 -201 0
203 -202 0
-134 -133 -132 -131 -151 202 0
-134 -133 -132 -131 -130 -200 201 0
200 -197 0
200 -198 0
200 -199 0
61 -100 -99 46 45 60 47 44 42 -149 -148 -147 -146 -94 -93 199 0
32 31 29 33 34 -91 -90 58 57 -144 -143 -142 -141 -85 -84 198 0
21 20 19 18 16 54 55 -82 -81 -139 -79 -78 -138 -137 -136 197 0
-134 -133 -132 -131 -172 -195 196 0
195 -192 0
195 -193 0
195 -194 0
61 45 62 60 47 44 42 -188 -187 -149 -148 -147 -186 -185 -146 194 0
32 31 29 34 59 58 57 -144 -143 -183 -182 -142 -141 -181 -180 193 0
21 19 18 16 54 56 55 -178 -139 -177 -176 -175 -138 -137 -136 192 0
-134 -133 -132 -131 -190 -174 191 0
190 -179 0
190 -184 0
190 -189 0
61 68 46 45 65 60 44 -188 -187 -126 -125 -124 -186 -185 -121 189 0
188 51 0
188 6 0
187 49 0
187 -6 0
186 53 0
186 2 0
185 50 0
185 -2 0
32 31 33 67 -119 64 58 57 -118 -183 -182 -181 -115 -180 -112 184 0
183 38 0
183 6 0
182 36 0
182 -6 0
181 40 0
181 2 0
180 37 0
180 -2 0
-110 20 19 18 54 55 66 63 -109 -178 -177 -106 -176 -175 -103 179 0
178 6 0
178 25 0
177 23 0
177 -6 0
176 24 0
176 -2 0
175 27 0
175 2 0
174 -135 0
174 -168 0
174 -173 0
-134 -133 -132 -131 -172 173 0
172 -169 0
172 -170 0
172 -171 0
61 46 65 60 47 71 44 -98 -128 -127 -97 -96 -123 -122 -95 171 0
31 33 34 64 58 57 70 -89 -88 -117 -116 -87 -114 -86 -113 170 0
21 20 18 54 55 69 63 -80 -108 -107 -77 -76 -105 -104 -75 169 0
-134 -133 -132 -131 -167 -151 168 0
167 -156 0
167 -161 0
167 -166 0
68 46 45 43 65 60 44 -165 -98 -97 -96 -164 -95 -163 -162 166 0
165 51 0
165 5 0
164 49 0
164 -5 0
163 53 0
163 1 0
162 50 0
162 -1 0
32 31 30 33 67 64 57 -160 -159 -89 -158 -88 -157 -87 -86 161 0
160 37 0
160 -1 0
159 40 0
159 1 0
158 38 0
158 5 0
157 36 0
157 -5 0
20 19 18 17 54 66 63 -155 -154 -153 -80 -77 -76 -152 -75 156 0
155 25 0
155 5 0
154 24 0
154 -1 0
153 27 0
153 1 0
152 23 0
152 -5 0
151 -140 0
151 -145 0
151 -150 0
61 46 60 47 71 44 42 -149 -128 -127 -148 -147 -123 -122 -146 150 0
149 14 0
149 5 0
148 11 0
148 -5 0
147 52 0
147 1 0
146 48 0
146 -1 0
31 29 33 34 58 57 70 -144 -143 -142 -141 -117 -116 -114 -113 145 0
144 39 0
144 1 0
143 35 0
143 -1 0
142 12 0
142 5 0
141 10 0
141 -5 0
21 20 18 16 54 55 69 -139 -108 -107 -138 -137 -105 -104 -136 140 0
139 26 0
139 1 0
138 5 0
138 13 0
137 9 0
137 -5 0
136 22 0
136 -1 0
-134 -133 -132 -131 -130 -102 135 0
134 10 0
134 -9 0
133 11 0
133 -10 0
132 13 0
132 -12 0
131 12 0
131 -14 0
130 -111 0
130 -120 0
130 -129 0
61 65 62 60 47 71 44 -128 -127 -126 -125 -124 -123 -122 -121 129 0
128 53 0
128 4 0
127 51 0
127 8 0
126 14 0
126 7 0
125 11 0
125 -7 0
124 52 0
124 3 0
123 49 0
123 -8 0
122 50 0
122 -4 0
121 48 0
121 -3 0
31 34 -119 64 59 58 57 -118 70 -117 -116 -115 -114 -113 -112 120 0
119 10 0
119 -7 0
118 12 0
118 7 0
117 38 0
117 8 0
116 40 0
116 4 0
115 35 0
115 -3 0
114 37 0
114 -4 0
113 36 0
113 -8 0
112 39 0
112 3 0
21 -110 18 54 56 55 69 63 -109 -108 -107 -106 -105 -104 -103 111 0
110 7 0
110 13 0
109 9 0
109 -7 0
108 27 0
108 4 0
107 24 0
107 -4 0
106 26 0
106 3 0
105 23 0
105 -8 0
104 8 0
104 25 0
103 22 0
103 -3 0
102 -83 0
102 -92 0
102 -101 0
61 -100 -99 45 65 62 60 47 44 -98 -97 -96 -95 -94 -93 101 0
100 51 0
100 7 0
99 49 0
99 -7 0
98 14 0
98 6 0
97 11 0
97 -6 0
96 52 0
96 2 0
95 48 0
95 -2 0
94 50 0
94 -3 0
93 53 0
93 3 0
32 31 34 64 -91 -90 59 58 57 -89 -88 -87 -86 -85 -84 92 0
91 38 0
91 7 0
90 36 0
90 -7 0
89 12 0
89 6 0
88 10 0
88 -6 0
87 35 0
87 -2 0
86 39 0
86 2 0
85 40 0
85 3 0
84 37 0
84 -3 0
21 19 18 54 56 55 63 -82 -81 -80 -79 -78 -77 -76 -75 83 0
82 25 0
82 7 0
81 23 0
81 -7 0
80 9 0
80 -6 0
79 24 0
79 -3 0
78 27 0
78 3 0
77 26 0
77 2 0
76 6 0
76 13 0
75 22 0
75 -2 0
